(set-logic ALL)
(set-option :produce-models true)
(declare-sort BoundSet 0)
(declare-sort UnboundSet 0)
(set-option :finite-model-find true)
(declare-fun HasTerribleExperience (BoundSet BoundSet) Bool)
(declare-fun HasBoyfriend (BoundSet BoundSet) Bool)
(declare-fun IsMean (BoundSet) Bool)
(assert (not (=> (exists ((b BoundSet)) (exists ((a BoundSet)) (exists ((c BoundSet)) (and (HasTerribleExperience a b) (HasBoyfriend a c))))) (exists ((d BoundSet)) (IsMean d)))))
(check-sat)
(get-model)